
Gurobi 7.0.2 (linux64, Python) logging started Sat Mar 11 18:56:56 2017


Gurobi 7.0.2 (linux64, Python) logging started Sat Mar 11 20:34:30 2017


Gurobi 7.0.2 (linux64, Python) logging started Sat Mar 11 20:41:38 2017


Gurobi 7.0.2 (linux64, Python) logging started Sat Mar 11 21:03:26 2017


Gurobi 7.0.2 (linux64, Python) logging started Sat Mar 11 21:04:11 2017


Gurobi 7.0.2 (linux64, Python) logging started Sat Mar 11 21:43:22 2017


Gurobi 7.0.2 (linux64, Python) logging started Sun Mar 12 00:03:54 2017


Gurobi 7.0.2 (linux64, Python) logging started Sun Mar 12 01:12:27 2017


Gurobi 7.0.2 (linux64, Python) logging started Sun Mar 12 01:57:50 2017


Gurobi 7.0.2 (linux64, Python) logging started Mon Mar 13 10:48:22 2017


Gurobi 7.0.2 (linux64, Python) logging started Mon Mar 13 11:09:29 2017


Gurobi 7.0.2 (linux64, Python) logging started Mon Mar 13 11:10:25 2017


Gurobi 7.0.2 (linux64, Python) logging started Mon Mar 13 12:47:20 2017


Gurobi 7.0.2 (linux64, Python) logging started Mon Mar 13 13:17:53 2017


Gurobi 7.0.2 (linux64, Python) logging started Mon Mar 13 13:21:55 2017


Gurobi 7.0.2 (linux64, Python) logging started Mon Mar 13 14:32:54 2017


Gurobi 7.0.2 (linux64, Python) logging started Mon Mar 13 15:20:47 2017


Gurobi 7.0.2 (linux64, Python) logging started Mon Mar 13 15:30:13 2017

